50
13629

865 965.0
395 495.0
777 877.0
912 1012.0
431 531.0
42 142.0
266 366.0
989 1089.0
524 624.0
498 598.0
415 515.0
941 1041.0
803 903.0
850 950.0
311 411.0
992 1092.0
489 589.0
367 467.0
598 698.0
914 1014.0
930 1030.0
224 324.0
517 617.0
143 243.0
289 389.0
144 244.0
774 874.0
98 198.0
634 734.0
819 919.0
257 357.0
932 1032.0
546 646.0
723 823.0
830 930.0
617 717.0
924 1024.0
151 251.0
318 418.0
102 202.0
748 848.0
76 176.0
921 1021.0
871 971.0
701 801.0
339 439.0
484 584.0
574 674.0
104 204.0
363 463.0
